
  17    4
  10   10   10   10

   0   0   0   0   0   4 2 3 4 5 
   9  10  10  10  10   4 15 14 10 6 
   7  10  10  10  10   4 16 14 8 7 
   2  10  10  10  10   5 16 14 10 9 8 
  10  10  10  10  10   4 15 14 9 8 
   3  10  10  10  10   3 16 9 8 
   6  10  10  10  10   3 15 12 9 
   9  10  10  10  10   3 13 12 11 
   5  10  10  10  10   2 13 11 
   8  10  10  10  10   2 12 11 
   8  10  10  10  10   1 17
   7  10  10  10  10   1 17
   8  10  10  10  10   1 17
   5  10  10  10  10   1 17
   4  10  10  10  10   1 17
   1  10  10  10  10   1 17
   0   0   0   0   0   0 
